************************************************************************
file with basedata            : mb14_.bas
initial value random generator: 13782
************************************************************************
projects                      :  1
jobs (incl. supersource/sink ):  12
horizon                       :  81
RESOURCES
  - renewable                 :  2   R
  - nonrenewable              :  2   N
  - doubly constrained        :  0   D
************************************************************************
PROJECT INFORMATION:
pronr.  #jobs rel.date duedate tardcost  MPM-Time
    1     10      0        9        7        9
************************************************************************
PRECEDENCE RELATIONS:
jobnr.    #modes  #successors   successors
   0        1          3           1   2   3
   1        3          2           7   8
   2        3          1           4
   3        3          3           5   7  10
   4        3          2           9  10
   5        3          2           6   8
   6        3          1           9
   7        3          1           9
   8        3          1          11
   9        3          1          11
  10        3          1          11
  11        1          0        
************************************************************************
REQUESTS/DURATIONS:
jobnr. mode duration  R 1  R 2  R 3  R 4  E(W 1)  E(W 2)
------------------------------------------------------------------------
  0      1     0       0    0    0    0     0       0
  1      1     1       7    7    9    7    14      16
  2      1     4       6    9    6    6    60      48
  3      1     1       7    9    5    9    16      14
  4      1     2       6    7    6    6    26      24
  5      1     2       9    9   10    7    36      34
  6      1     4       5    7    9    5    48      56
  7      1     2       6    9    9    4    30      26
  8      1     1       8    9    4    4    17       8
  9      1     1       9    8    6    3    17       9
 10      1     3       9    4    7    7    39      42
 11      1     0       0    0    0    0     0       0
************************************************************************
RESOURCEAVAILABILITIES:
  R 1  R 2
   20   130
************************************************************************
RESOURCE LIMITS:
jobnr.  l(R 1)  u(R 1)  l(R 2)  u(R 2)
------------------------------------------------------------------------
  0        0       0       0       0
  1        8      14       9      16
  2        8      15       6      12
  3        9      16       8      14
  4        7      13       6      12
  5       10      18       9      17
  6        7      12       8      14
  7        8      15       7      13
  8        9      17       4       8
  9        9      17       5       9
 10        7      13       8      14
 11        0       0       0       0
************************************************************************
SCENARIOS:
------------------------------------------------------------------------
RESOURCE k = 1
s = 1: (0, 15, 83, 17, 17, 23, 44, 23, 17, 27, 28, 0)
s = 2: (0, 17, 80, 11, 35, 25, 55, 40, 21, 23, 34, 0)
s = 3: (0, 13, 32, 13, 34, 50, 55, 33, 16, 20, 49, 0)
s = 4: (0, 16, 72, 13, 29, 55, 49, 23, 25, 23, 25, 0)
s = 5: (0, 16, 47, 25, 38, 57, 65, 32, 22, 14, 25, 0)
s = 6: (0, 18, 79, 16, 35, 30, 28, 28, 11, 22, 27, 0)
s = 7: (0, 10, 85, 11, 15, 32, 55, 25, 20, 15, 27, 0)
s = 8: (0, 13, 95, 12, 32, 19, 34, 40, 21, 16, 42, 0)
s = 9: (0, 16, 50, 20, 27, 39, 59, 24, 21, 14, 23, 0)
s = 10: (0, 19, 37, 11, 23, 43, 68, 33, 11, 24, 51, 0)
s = 11: (0, 13, 44, 18, 37, 35, 28, 24, 12, 18, 31, 0)
s = 12: (0, 12, 50, 16, 22, 23, 58, 24, 26, 12, 36, 0)
s = 13: (0, 13, 64, 16, 16, 28, 41, 34, 18, 17, 21, 0)
s = 14: (0, 9, 41, 12, 20, 28, 43, 26, 14, 20, 33, 0)
s = 15: (0, 14, 61, 23, 32, 35, 69, 42, 17, 24, 36, 0)
s = 16: (0, 15, 73, 21, 20, 38, 32, 25, 24, 12, 44, 0)
s = 17: (0, 11, 66, 11, 27, 55, 59, 34, 14, 18, 52, 0)
s = 18: (0, 14, 36, 19, 18, 30, 39, 22, 14, 10, 33, 0)
s = 19: (0, 11, 40, 11, 23, 31, 46, 22, 13, 16, 43, 0)
s = 20: (0, 11, 54, 13, 26, 28, 44, 24, 15, 16, 57, 0)
s = 21: (0, 20, 54, 20, 34, 43, 79, 21, 9, 15, 38, 0)
s = 22: (0, 16, 66, 11, 20, 27, 49, 23, 13, 29, 41, 0)
s = 23: (0, 10, 33, 19, 23, 37, 54, 37, 15, 15, 49, 0)
s = 24: (0, 11, 50, 23, 19, 22, 74, 21, 18, 17, 44, 0)
s = 25: (0, 10, 44, 14, 22, 45, 78, 38, 28, 20, 25, 0)
s = 26: (0, 12, 80, 15, 26, 31, 40, 44, 16, 22, 43, 0)
s = 27: (0, 12, 48, 17, 23, 44, 37, 30, 26, 21, 34, 0)
s = 28: (0, 11, 64, 15, 31, 41, 66, 30, 21, 24, 48, 0)
s = 29: (0, 16, 47, 23, 25, 23, 42, 28, 18, 24, 48, 0)
s = 30: (0, 13, 69, 24, 21, 36, 87, 21, 13, 12, 48, 0)
s = 31: (0, 11, 75, 23, 22, 30, 44, 36, 18, 13, 50, 0)
s = 32: (0, 18, 71, 20, 36, 38, 85, 34, 19, 14, 35, 0)
s = 33: (0, 13, 66, 11, 25, 52, 85, 23, 23, 20, 31, 0)
s = 34: (0, 14, 54, 13, 30, 31, 37, 57, 19, 16, 32, 0)
s = 35: (0, 13, 58, 23, 29, 32, 55, 22, 13, 14, 40, 0)
s = 36: (0, 14, 91, 14, 30, 33, 48, 23, 12, 18, 45, 0)
s = 37: (0, 14, 96, 10, 31, 24, 59, 36, 13, 13, 39, 0)
s = 38: (0, 17, 61, 13, 21, 23, 28, 39, 16, 17, 27, 0)
s = 39: (0, 11, 59, 14, 30, 56, 66, 31, 15, 18, 35, 0)
s = 40: (0, 17, 32, 11, 22, 39, 47, 44, 16, 18, 34, 0)
s = 41: (0, 13, 45, 14, 24, 28, 49, 35, 23, 19, 60, 0)
s = 42: (0, 11, 62, 15, 17, 24, 63, 39, 20, 15, 24, 0)
s = 43: (0, 13, 74, 17, 27, 27, 41, 45, 23, 19, 24, 0)
s = 44: (0, 15, 80, 16, 34, 39, 61, 38, 11, 30, 47, 0)
s = 45: (0, 17, 47, 16, 19, 43, 38, 43, 22, 20, 40, 0)
s = 46: (0, 13, 83, 20, 27, 30, 42, 34, 25, 14, 51, 0)
s = 47: (0, 19, 80, 26, 26, 38, 30, 22, 22, 14, 31, 0)
s = 48: (0, 8, 58, 17, 16, 36, 38, 22, 11, 17, 34, 0)
s = 49: (0, 16, 84, 14, 23, 38, 52, 28, 16, 28, 53, 0)
s = 50: (0, 10, 66, 19, 21, 27, 46, 20, 15, 15, 30, 0)
s = 51: (0, 17, 39, 14, 27, 28, 28, 26, 16, 12, 36, 0)
s = 52: (0, 11, 51, 12, 43, 30, 40, 34, 18, 19, 32, 0)
s = 53: (0, 11, 34, 18, 18, 24, 39, 20, 14, 16, 28, 0)
s = 54: (0, 12, 64, 9, 17, 40, 74, 30, 11, 29, 35, 0)
s = 55: (0, 8, 88, 10, 24, 34, 46, 36, 18, 11, 26, 0)
s = 56: (0, 16, 50, 16, 17, 39, 36, 36, 12, 22, 23, 0)
s = 57: (0, 13, 47, 14, 30, 61, 64, 39, 24, 13, 31, 0)
s = 58: (0, 12, 63, 19, 20, 23, 80, 29, 17, 12, 48, 0)
s = 59: (0, 17, 59, 23, 21, 26, 41, 28, 17, 11, 43, 0)
s = 60: (0, 15, 53, 14, 31, 39, 64, 24, 13, 12, 40, 0)
s = 61: (0, 9, 51, 12, 43, 29, 56, 26, 11, 25, 28, 0)
s = 62: (0, 17, 47, 11, 31, 36, 36, 27, 10, 19, 43, 0)
s = 63: (0, 12, 63, 23, 16, 45, 36, 31, 15, 29, 31, 0)
s = 64: (0, 17, 47, 23, 23, 47, 55, 27, 28, 11, 44, 0)
s = 65: (0, 15, 65, 21, 15, 49, 32, 24, 22, 12, 25, 0)
s = 66: (0, 13, 57, 15, 33, 41, 47, 22, 14, 18, 27, 0)
s = 67: (0, 13, 70, 25, 29, 33, 63, 23, 14, 21, 50, 0)
s = 68: (0, 16, 56, 13, 25, 57, 57, 35, 16, 26, 34, 0)
s = 69: (0, 13, 75, 18, 33, 40, 39, 34, 19, 27, 66, 0)
s = 70: (0, 15, 51, 17, 37, 25, 35, 48, 20, 11, 35, 0)
s = 71: (0, 15, 47, 15, 34, 27, 72, 26, 18, 28, 44, 0)
s = 72: (0, 10, 56, 15, 40, 24, 31, 26, 17, 17, 76, 0)
s = 73: (0, 9, 68, 13, 27, 26, 54, 33, 20, 18, 50, 0)
s = 74: (0, 12, 79, 12, 36, 30, 53, 28, 12, 23, 23, 0)
s = 75: (0, 10, 74, 17, 29, 36, 34, 26, 11, 18, 27, 0)
s = 76: (0, 16, 65, 12, 25, 30, 39, 32, 19, 19, 32, 0)
s = 77: (0, 14, 46, 27, 24, 22, 38, 23, 21, 24, 29, 0)
s = 78: (0, 9, 75, 16, 24, 42, 44, 38, 14, 20, 31, 0)
s = 79: (0, 21, 47, 14, 25, 44, 66, 33, 18, 16, 23, 0)
s = 80: (0, 10, 51, 13, 41, 42, 36, 30, 19, 16, 31, 0)
s = 81: (0, 21, 37, 18, 33, 34, 42, 24, 14, 18, 29, 0)
s = 82: (0, 18, 81, 12, 29, 66, 53, 38, 13, 25, 39, 0)
s = 83: (0, 14, 96, 16, 37, 33, 61, 32, 11, 16, 27, 0)
s = 84: (0, 14, 74, 16, 27, 44, 37, 32, 14, 23, 57, 0)
s = 85: (0, 17, 88, 21, 33, 41, 29, 19, 17, 16, 32, 0)
s = 86: (0, 15, 80, 15, 23, 39, 64, 34, 27, 26, 32, 0)
s = 87: (0, 15, 48, 13, 24, 34, 34, 32, 12, 17, 39, 0)
s = 88: (0, 24, 36, 13, 30, 29, 38, 34, 19, 17, 38, 0)
s = 89: (0, 18, 54, 11, 30, 49, 38, 22, 17, 11, 30, 0)
s = 90: (0, 23, 65, 13, 35, 27, 41, 26, 11, 15, 38, 0)
s = 91: (0, 16, 63, 24, 22, 44, 65, 35, 27, 15, 29, 0)
s = 92: (0, 8, 55, 28, 28, 26, 64, 40, 12, 23, 54, 0)
s = 93: (0, 25, 85, 10, 40, 40, 37, 31, 16, 13, 64, 0)
s = 94: (0, 15, 41, 12, 24, 58, 46, 16, 11, 27, 40, 0)
s = 95: (0, 13, 93, 13, 22, 46, 40, 33, 18, 15, 46, 0)
s = 96: (0, 14, 56, 10, 31, 28, 46, 19, 19, 17, 26, 0)
s = 97: (0, 14, 34, 16, 36, 35, 68, 29, 18, 17, 39, 0)
s = 98: (0, 21, 64, 14, 36, 38, 45, 30, 27, 17, 33, 0)
s = 99: (0, 13, 94, 20, 27, 25, 58, 31, 17, 29, 33, 0)
s = 100: (0, 19, 79, 13, 22, 24, 50, 41, 25, 13, 37, 0)
s = 101: (0, 17, 54, 12, 37, 39, 41, 30, 15, 14, 28, 0)
s = 102: (0, 11, 89, 11, 27, 28, 38, 22, 12, 17, 37, 0)
s = 103: (0, 12, 68, 21, 47, 43, 28, 41, 18, 22, 28, 0)
s = 104: (0, 13, 64, 21, 25, 44, 66, 22, 11, 15, 45, 0)
s = 105: (0, 11, 77, 19, 42, 39, 42, 21, 18, 20, 60, 0)
s = 106: (0, 18, 58, 16, 26, 39, 49, 31, 14, 19, 54, 0)
s = 107: (0, 11, 61, 10, 26, 40, 40, 18, 26, 15, 35, 0)
s = 108: (0, 15, 70, 13, 18, 28, 36, 42, 14, 15, 44, 0)
s = 109: (0, 14, 63, 31, 17, 40, 39, 21, 22, 13, 63, 0)
s = 110: (0, 14, 61, 17, 20, 23, 57, 47, 15, 23, 31, 0)
s = 111: (0, 15, 55, 14, 20, 52, 57, 46, 20, 20, 56, 0)
s = 112: (0, 12, 50, 15, 18, 45, 41, 21, 10, 20, 38, 0)
s = 113: (0, 15, 54, 12, 22, 34, 34, 43, 24, 20, 39, 0)
s = 114: (0, 14, 45, 15, 20, 27, 27, 16, 13, 16, 50, 0)
s = 115: (0, 15, 66, 20, 23, 29, 44, 26, 10, 13, 40, 0)
s = 116: (0, 10, 60, 20, 21, 38, 41, 37, 20, 17, 51, 0)
s = 117: (0, 18, 61, 11, 37, 52, 32, 32, 11, 24, 52, 0)
s = 118: (0, 14, 87, 19, 24, 23, 57, 25, 30, 22, 27, 0)
s = 119: (0, 12, 39, 14, 19, 29, 49, 35, 25, 30, 23, 0)
s = 120: (0, 13, 33, 12, 36, 30, 46, 34, 25, 14, 31, 0)
s = 121: (0, 10, 65, 14, 22, 38, 53, 24, 23, 23, 26, 0)
s = 122: (0, 10, 57, 22, 18, 38, 57, 28, 15, 22, 53, 0)
s = 123: (0, 8, 78, 19, 35, 50, 51, 30, 16, 18, 41, 0)
s = 124: (0, 17, 40, 16, 33, 28, 33, 26, 20, 20, 51, 0)
s = 125: (0, 12, 69, 20, 22, 41, 43, 46, 12, 22, 34, 0)
s = 126: (0, 14, 70, 29, 25, 36, 26, 24, 17, 20, 35, 0)
s = 127: (0, 17, 47, 22, 22, 33, 51, 36, 24, 15, 58, 0)
s = 128: (0, 17, 58, 12, 22, 52, 66, 22, 14, 20, 56, 0)
s = 129: (0, 12, 85, 18, 17, 34, 58, 30, 19, 24, 80, 0)
s = 130: (0, 20, 63, 28, 19, 41, 56, 47, 20, 14, 42, 0)
s = 131: (0, 11, 55, 14, 18, 40, 51, 24, 15, 18, 41, 0)
s = 132: (0, 22, 42, 20, 25, 26, 30, 31, 14, 12, 61, 0)
s = 133: (0, 18, 55, 23, 30, 41, 38, 33, 11, 19, 49, 0)
s = 134: (0, 18, 43, 13, 21, 42, 31, 21, 14, 15, 27, 0)
s = 135: (0, 15, 42, 15, 32, 23, 41, 27, 26, 28, 45, 0)
s = 136: (0, 14, 56, 17, 37, 24, 65, 47, 20, 14, 56, 0)
s = 137: (0, 10, 52, 10, 24, 30, 40, 29, 23, 18, 42, 0)
s = 138: (0, 13, 104, 26, 39, 53, 36, 52, 24, 13, 24, 0)
s = 139: (0, 22, 57, 16, 35, 40, 65, 35, 16, 12, 49, 0)
s = 140: (0, 11, 90, 12, 36, 29, 54, 39, 21, 14, 49, 0)
s = 141: (0, 18, 93, 16, 33, 41, 33, 35, 15, 18, 31, 0)
s = 142: (0, 12, 64, 23, 30, 45, 48, 38, 13, 18, 63, 0)
s = 143: (0, 16, 53, 9, 24, 22, 54, 34, 18, 15, 44, 0)
s = 144: (0, 14, 49, 21, 18, 46, 38, 25, 15, 11, 41, 0)
s = 145: (0, 11, 94, 21, 30, 30, 46, 23, 16, 18, 44, 0)
s = 146: (0, 12, 53, 11, 28, 27, 40, 26, 15, 16, 30, 0)
s = 147: (0, 9, 55, 19, 20, 24, 40, 27, 17, 13, 59, 0)
s = 148: (0, 23, 70, 15, 26, 38, 63, 29, 14, 11, 34, 0)
s = 149: (0, 17, 86, 22, 25, 53, 48, 23, 20, 9, 60, 0)
s = 150: (0, 10, 105, 25, 25, 38, 48, 45, 14, 13, 35, 0)
s = 151: (0, 15, 111, 21, 26, 43, 32, 25, 15, 22, 29, 0)
s = 152: (0, 18, 49, 9, 25, 21, 28, 25, 25, 22, 43, 0)
s = 153: (0, 14, 37, 23, 27, 32, 64, 31, 11, 14, 28, 0)
s = 154: (0, 15, 63, 15, 33, 32, 29, 20, 14, 21, 36, 0)
s = 155: (0, 10, 48, 17, 30, 43, 29, 30, 21, 11, 45, 0)
s = 156: (0, 22, 68, 12, 19, 31, 59, 41, 12, 18, 28, 0)
s = 157: (0, 18, 52, 14, 27, 35, 35, 29, 16, 20, 33, 0)
s = 158: (0, 15, 63, 25, 34, 57, 34, 21, 17, 20, 35, 0)
s = 159: (0, 19, 49, 10, 20, 34, 39, 23, 15, 13, 24, 0)
s = 160: (0, 11, 50, 22, 18, 40, 53, 40, 20, 29, 31, 0)
s = 161: (0, 8, 38, 18, 24, 40, 71, 18, 26, 17, 35, 0)
s = 162: (0, 10, 79, 19, 32, 32, 53, 36, 20, 26, 34, 0)
s = 163: (0, 9, 81, 20, 32, 45, 59, 28, 17, 21, 41, 0)
s = 164: (0, 22, 44, 17, 20, 26, 42, 22, 18, 23, 37, 0)
s = 165: (0, 14, 35, 16, 22, 45, 30, 23, 15, 28, 28, 0)
s = 166: (0, 13, 65, 18, 19, 38, 52, 17, 29, 18, 28, 0)
s = 167: (0, 13, 78, 16, 16, 31, 55, 46, 22, 20, 53, 0)
s = 168: (0, 16, 32, 24, 24, 30, 85, 21, 22, 11, 31, 0)
s = 169: (0, 16, 62, 18, 36, 59, 55, 42, 16, 19, 47, 0)
s = 170: (0, 11, 102, 14, 33, 37, 44, 21, 18, 15, 35, 0)
s = 171: (0, 18, 43, 18, 38, 42, 36, 24, 14, 13, 34, 0)
s = 172: (0, 13, 65, 15, 39, 25, 42, 25, 16, 22, 24, 0)
s = 173: (0, 13, 41, 17, 23, 31, 79, 26, 22, 14, 37, 0)
s = 174: (0, 14, 82, 12, 17, 32, 75, 26, 31, 30, 44, 0)
s = 175: (0, 14, 45, 22, 38, 57, 38, 39, 15, 10, 56, 0)
s = 176: (0, 22, 52, 18, 25, 56, 55, 32, 14, 22, 34, 0)
s = 177: (0, 11, 77, 18, 24, 27, 59, 31, 19, 27, 33, 0)
s = 178: (0, 17, 60, 14, 19, 49, 89, 43, 20, 21, 34, 0)
s = 179: (0, 16, 47, 21, 15, 37, 74, 30, 16, 21, 31, 0)
s = 180: (0, 9, 43, 10, 15, 26, 40, 25, 16, 11, 33, 0)
s = 181: (0, 13, 45, 16, 23, 40, 41, 37, 16, 16, 32, 0)
s = 182: (0, 22, 47, 12, 20, 54, 30, 19, 18, 11, 26, 0)
s = 183: (0, 20, 66, 24, 25, 49, 77, 42, 15, 25, 26, 0)
s = 184: (0, 16, 57, 16, 36, 26, 55, 33, 19, 16, 30, 0)
s = 185: (0, 9, 65, 21, 22, 27, 59, 30, 18, 11, 35, 0)
s = 186: (0, 13, 49, 18, 30, 44, 43, 30, 16, 14, 70, 0)
s = 187: (0, 18, 35, 13, 21, 54, 38, 40, 23, 18, 35, 0)
s = 188: (0, 11, 68, 27, 15, 38, 32, 30, 25, 25, 50, 0)
s = 189: (0, 11, 41, 12, 25, 44, 43, 19, 25, 20, 31, 0)
s = 190: (0, 20, 54, 13, 20, 51, 51, 41, 15, 13, 27, 0)
s = 191: (0, 9, 42, 20, 16, 27, 40, 32, 21, 18, 50, 0)
s = 192: (0, 15, 41, 16, 17, 38, 43, 19, 14, 11, 38, 0)
s = 193: (0, 14, 42, 20, 33, 24, 48, 26, 13, 23, 30, 0)
s = 194: (0, 27, 92, 18, 24, 47, 60, 24, 20, 25, 62, 0)
s = 195: (0, 11, 56, 28, 17, 25, 30, 39, 25, 13, 38, 0)
s = 196: (0, 20, 52, 12, 37, 52, 38, 27, 13, 18, 30, 0)
s = 197: (0, 17, 51, 11, 27, 35, 32, 28, 19, 17, 44, 0)
s = 198: (0, 20, 39, 14, 17, 45, 34, 37, 18, 15, 39, 0)
s = 199: (0, 15, 65, 14, 21, 31, 76, 24, 19, 15, 60, 0)
s = 200: (0, 15, 52, 14, 30, 43, 71, 32, 14, 18, 45, 0)
------------------------------------------------------------------------
RESOURCE k = 2
s = 1: (0, 17, 67, 15, 16, 22, 52, 20, 8, 15, 31, 0)
s = 2: (0, 19, 64, 10, 32, 24, 64, 35, 10, 13, 36, 0)
s = 3: (0, 14, 26, 12, 32, 48, 64, 29, 8, 11, 53, 0)
s = 4: (0, 18, 58, 11, 27, 52, 57, 20, 12, 12, 27, 0)
s = 5: (0, 19, 38, 22, 35, 54, 76, 28, 11, 8, 27, 0)
s = 6: (0, 20, 63, 14, 32, 28, 33, 25, 6, 12, 29, 0)
s = 7: (0, 12, 68, 9, 14, 31, 64, 21, 10, 8, 29, 0)
s = 8: (0, 15, 76, 11, 29, 18, 40, 35, 10, 9, 46, 0)
s = 9: (0, 19, 40, 18, 25, 37, 68, 21, 10, 8, 25, 0)
s = 10: (0, 21, 30, 10, 21, 40, 79, 29, 5, 13, 55, 0)
s = 11: (0, 15, 35, 16, 34, 33, 32, 21, 6, 10, 34, 0)
s = 12: (0, 14, 40, 14, 21, 22, 67, 21, 13, 7, 38, 0)
s = 13: (0, 15, 51, 14, 15, 26, 48, 30, 9, 9, 23, 0)
s = 14: (0, 10, 33, 11, 19, 27, 50, 22, 7, 11, 36, 0)
s = 15: (0, 16, 49, 21, 29, 33, 81, 36, 8, 13, 38, 0)
s = 16: (0, 17, 59, 19, 19, 36, 37, 22, 12, 6, 48, 0)
s = 17: (0, 12, 53, 10, 25, 52, 69, 29, 7, 10, 56, 0)
s = 18: (0, 16, 29, 17, 17, 28, 46, 19, 7, 6, 35, 0)
s = 19: (0, 13, 32, 9, 21, 29, 54, 19, 6, 9, 47, 0)
s = 20: (0, 12, 43, 11, 24, 27, 51, 20, 7, 9, 61, 0)
s = 21: (0, 23, 43, 18, 32, 41, 92, 18, 5, 8, 41, 0)
s = 22: (0, 18, 53, 10, 19, 25, 57, 20, 6, 16, 44, 0)
s = 23: (0, 12, 26, 16, 21, 35, 63, 32, 7, 8, 53, 0)
s = 24: (0, 12, 40, 20, 18, 21, 86, 18, 9, 9, 48, 0)
s = 25: (0, 11, 36, 12, 20, 42, 91, 33, 14, 11, 26, 0)
s = 26: (0, 14, 64, 13, 24, 29, 47, 38, 8, 12, 46, 0)
s = 27: (0, 14, 39, 15, 21, 42, 43, 26, 13, 11, 36, 0)
s = 28: (0, 12, 51, 13, 28, 39, 77, 26, 10, 13, 51, 0)
s = 29: (0, 18, 38, 20, 23, 21, 49, 25, 9, 13, 52, 0)
s = 30: (0, 15, 55, 21, 20, 34, 101, 19, 7, 7, 52, 0)
s = 31: (0, 12, 60, 21, 20, 28, 51, 31, 9, 7, 54, 0)
s = 32: (0, 20, 57, 18, 33, 36, 99, 30, 9, 7, 37, 0)
s = 33: (0, 15, 53, 10, 23, 49, 99, 20, 11, 11, 34, 0)
s = 34: (0, 16, 43, 11, 28, 30, 43, 49, 9, 9, 35, 0)
s = 35: (0, 15, 46, 20, 26, 30, 64, 20, 6, 8, 43, 0)
s = 36: (0, 16, 73, 12, 28, 31, 56, 20, 6, 10, 49, 0)
s = 37: (0, 16, 77, 9, 29, 23, 68, 31, 6, 7, 42, 0)
s = 38: (0, 20, 49, 11, 19, 22, 32, 34, 8, 9, 30, 0)
s = 39: (0, 13, 47, 12, 28, 53, 77, 27, 7, 10, 37, 0)
s = 40: (0, 20, 25, 10, 20, 37, 54, 38, 8, 10, 36, 0)
s = 41: (0, 14, 36, 13, 22, 27, 57, 30, 11, 10, 65, 0)
s = 42: (0, 13, 50, 13, 16, 23, 74, 34, 9, 8, 26, 0)
s = 43: (0, 14, 60, 15, 25, 25, 48, 39, 11, 10, 26, 0)
s = 44: (0, 17, 64, 14, 31, 37, 71, 33, 6, 16, 50, 0)
s = 45: (0, 19, 38, 14, 17, 41, 44, 38, 11, 11, 43, 0)
s = 46: (0, 14, 67, 18, 25, 28, 49, 30, 12, 8, 55, 0)
s = 47: (0, 22, 64, 23, 24, 36, 35, 19, 11, 8, 34, 0)
s = 48: (0, 9, 47, 15, 14, 34, 44, 19, 6, 9, 36, 0)
s = 49: (0, 18, 67, 12, 21, 36, 61, 24, 8, 15, 57, 0)
s = 50: (0, 12, 53, 17, 20, 26, 54, 18, 7, 8, 33, 0)
s = 51: (0, 20, 31, 12, 25, 27, 32, 22, 8, 7, 38, 0)
s = 52: (0, 12, 41, 10, 39, 29, 46, 29, 9, 10, 35, 0)
s = 53: (0, 12, 28, 16, 16, 23, 46, 17, 7, 9, 30, 0)
s = 54: (0, 14, 51, 8, 16, 38, 86, 26, 6, 16, 38, 0)
s = 55: (0, 9, 70, 9, 22, 32, 54, 31, 9, 6, 27, 0)
s = 56: (0, 18, 40, 14, 15, 37, 42, 31, 6, 12, 25, 0)
s = 57: (0, 14, 38, 13, 28, 57, 74, 34, 12, 7, 33, 0)
s = 58: (0, 13, 50, 17, 19, 21, 94, 25, 8, 6, 51, 0)
s = 59: (0, 19, 47, 20, 19, 24, 48, 24, 8, 6, 46, 0)
s = 60: (0, 17, 43, 12, 29, 36, 75, 21, 6, 7, 43, 0)
s = 61: (0, 10, 41, 11, 39, 27, 65, 23, 6, 13, 30, 0)
s = 62: (0, 19, 38, 9, 28, 34, 42, 23, 5, 10, 46, 0)
s = 63: (0, 13, 50, 20, 15, 42, 42, 27, 7, 15, 33, 0)
s = 64: (0, 19, 38, 20, 22, 45, 64, 23, 13, 6, 47, 0)
s = 65: (0, 17, 52, 18, 14, 47, 37, 21, 11, 7, 27, 0)
s = 66: (0, 15, 46, 13, 30, 39, 55, 19, 7, 10, 29, 0)
s = 67: (0, 14, 56, 22, 27, 31, 73, 20, 7, 11, 53, 0)
s = 68: (0, 18, 45, 11, 23, 54, 67, 31, 8, 14, 37, 0)
s = 69: (0, 14, 60, 15, 30, 38, 45, 29, 9, 14, 71, 0)
s = 70: (0, 17, 41, 15, 34, 24, 41, 41, 9, 6, 37, 0)
s = 71: (0, 18, 38, 13, 31, 26, 84, 22, 9, 15, 47, 0)
s = 72: (0, 11, 45, 13, 37, 23, 36, 22, 8, 9, 82, 0)
s = 73: (0, 10, 54, 11, 25, 25, 63, 28, 10, 10, 54, 0)
s = 74: (0, 13, 63, 11, 34, 29, 62, 24, 6, 12, 24, 0)
s = 75: (0, 11, 59, 15, 27, 34, 40, 23, 6, 10, 29, 0)
s = 76: (0, 18, 52, 11, 23, 28, 46, 27, 9, 10, 35, 0)
s = 77: (0, 16, 37, 24, 22, 21, 44, 20, 10, 13, 31, 0)
s = 78: (0, 10, 60, 14, 23, 40, 51, 33, 7, 11, 33, 0)
s = 79: (0, 24, 38, 12, 23, 41, 77, 29, 9, 9, 25, 0)
s = 80: (0, 11, 41, 11, 38, 39, 41, 26, 9, 9, 34, 0)
s = 81: (0, 24, 30, 16, 31, 32, 49, 21, 7, 10, 31, 0)
s = 82: (0, 20, 65, 10, 27, 63, 62, 33, 7, 13, 42, 0)
s = 83: (0, 16, 77, 14, 35, 31, 71, 28, 5, 9, 29, 0)
s = 84: (0, 16, 60, 14, 25, 42, 44, 28, 7, 12, 61, 0)
s = 85: (0, 20, 71, 19, 31, 39, 34, 16, 8, 9, 35, 0)
s = 86: (0, 17, 64, 13, 22, 37, 74, 30, 13, 14, 34, 0)
s = 87: (0, 17, 38, 12, 22, 32, 40, 28, 6, 9, 42, 0)
s = 88: (0, 27, 29, 11, 28, 27, 45, 30, 9, 9, 41, 0)
s = 89: (0, 20, 44, 10, 27, 46, 45, 19, 8, 6, 32, 0)
s = 90: (0, 26, 52, 11, 33, 26, 48, 23, 6, 8, 41, 0)
s = 91: (0, 18, 50, 21, 20, 42, 76, 30, 13, 8, 31, 0)
s = 92: (0, 9, 44, 25, 26, 25, 75, 35, 6, 12, 59, 0)
s = 93: (0, 29, 68, 9, 37, 38, 43, 27, 8, 7, 68, 0)
s = 94: (0, 17, 33, 10, 22, 55, 54, 14, 6, 14, 43, 0)
s = 95: (0, 15, 74, 11, 20, 43, 47, 29, 9, 8, 49, 0)
s = 96: (0, 16, 45, 9, 29, 27, 54, 17, 9, 9, 28, 0)
s = 97: (0, 16, 27, 14, 33, 33, 79, 25, 9, 9, 42, 0)
s = 98: (0, 23, 51, 13, 33, 35, 52, 26, 13, 9, 35, 0)
s = 99: (0, 15, 75, 18, 25, 23, 68, 27, 8, 16, 35, 0)
s = 100: (0, 22, 63, 12, 21, 23, 58, 35, 12, 7, 39, 0)
s = 101: (0, 19, 44, 10, 34, 37, 48, 26, 7, 8, 30, 0)
s = 102: (0, 13, 71, 10, 25, 27, 45, 19, 6, 9, 40, 0)
s = 103: (0, 13, 55, 19, 44, 41, 32, 35, 9, 12, 30, 0)
s = 104: (0, 15, 52, 19, 23, 42, 76, 19, 6, 8, 49, 0)
s = 105: (0, 12, 62, 17, 39, 37, 49, 19, 9, 11, 65, 0)
s = 106: (0, 20, 46, 14, 24, 37, 57, 27, 7, 10, 58, 0)
s = 107: (0, 12, 49, 9, 24, 38, 47, 16, 12, 8, 38, 0)
s = 108: (0, 17, 56, 11, 17, 27, 42, 37, 7, 8, 47, 0)
s = 109: (0, 16, 51, 27, 16, 38, 45, 18, 10, 7, 68, 0)
s = 110: (0, 16, 49, 15, 19, 22, 66, 41, 7, 12, 34, 0)
s = 111: (0, 17, 44, 12, 19, 49, 67, 40, 10, 11, 60, 0)
s = 112: (0, 14, 40, 13, 17, 42, 48, 18, 5, 11, 41, 0)
s = 113: (0, 17, 43, 11, 20, 32, 40, 37, 11, 11, 42, 0)
s = 114: (0, 16, 36, 13, 19, 26, 31, 14, 6, 9, 54, 0)
s = 115: (0, 17, 53, 17, 22, 27, 51, 23, 5, 7, 43, 0)
s = 116: (0, 12, 48, 17, 19, 36, 48, 32, 10, 9, 55, 0)
s = 117: (0, 20, 49, 9, 34, 49, 37, 28, 5, 13, 56, 0)
s = 118: (0, 16, 70, 16, 22, 22, 67, 22, 14, 12, 29, 0)
s = 119: (0, 14, 31, 12, 18, 27, 57, 30, 12, 16, 25, 0)
s = 120: (0, 15, 26, 11, 33, 29, 53, 30, 12, 8, 34, 0)
s = 121: (0, 11, 52, 12, 20, 36, 61, 21, 11, 12, 28, 0)
s = 122: (0, 11, 46, 20, 17, 36, 66, 24, 8, 12, 57, 0)
s = 123: (0, 9, 62, 17, 32, 47, 59, 26, 8, 10, 44, 0)
s = 124: (0, 19, 32, 14, 31, 27, 38, 23, 10, 11, 55, 0)
s = 125: (0, 13, 55, 18, 20, 38, 50, 40, 6, 12, 36, 0)
s = 126: (0, 16, 56, 25, 23, 34, 30, 21, 8, 11, 38, 0)
s = 127: (0, 19, 37, 19, 20, 31, 60, 32, 11, 8, 62, 0)
s = 128: (0, 19, 47, 11, 20, 49, 77, 19, 7, 11, 60, 0)
s = 129: (0, 13, 68, 16, 16, 33, 68, 26, 9, 13, 86, 0)
s = 130: (0, 23, 50, 25, 18, 39, 65, 41, 10, 8, 45, 0)
s = 131: (0, 12, 44, 12, 17, 38, 59, 21, 7, 10, 44, 0)
s = 132: (0, 25, 34, 18, 23, 25, 34, 27, 7, 6, 65, 0)
s = 133: (0, 21, 44, 20, 28, 39, 44, 28, 5, 10, 52, 0)
s = 134: (0, 20, 35, 12, 19, 39, 36, 19, 7, 8, 29, 0)
s = 135: (0, 17, 34, 13, 30, 22, 48, 24, 12, 15, 49, 0)
s = 136: (0, 16, 45, 15, 34, 23, 75, 41, 10, 7, 60, 0)
s = 137: (0, 11, 42, 9, 22, 29, 46, 25, 11, 10, 45, 0)
s = 138: (0, 15, 83, 23, 36, 50, 41, 45, 11, 7, 26, 0)
s = 139: (0, 26, 45, 14, 33, 38, 76, 30, 8, 7, 53, 0)
s = 140: (0, 13, 72, 11, 33, 27, 63, 34, 10, 8, 53, 0)
s = 141: (0, 20, 75, 14, 30, 39, 38, 30, 7, 10, 33, 0)
s = 142: (0, 13, 51, 20, 27, 42, 56, 33, 7, 10, 68, 0)
s = 143: (0, 18, 43, 8, 22, 21, 63, 29, 9, 8, 48, 0)
s = 144: (0, 16, 39, 18, 17, 43, 44, 21, 7, 6, 44, 0)
s = 145: (0, 13, 75, 18, 28, 28, 54, 20, 8, 10, 47, 0)
s = 146: (0, 13, 42, 9, 26, 25, 47, 23, 7, 9, 33, 0)
s = 147: (0, 11, 44, 16, 18, 23, 47, 24, 8, 7, 64, 0)
s = 148: (0, 26, 56, 13, 24, 36, 73, 25, 7, 6, 37, 0)
s = 149: (0, 20, 69, 19, 23, 50, 56, 20, 10, 5, 65, 0)
s = 150: (0, 12, 84, 22, 23, 36, 56, 39, 7, 7, 38, 0)
s = 151: (0, 17, 89, 19, 24, 41, 37, 21, 7, 12, 31, 0)
s = 152: (0, 20, 40, 8, 23, 20, 32, 21, 12, 12, 46, 0)
s = 153: (0, 16, 30, 20, 25, 30, 75, 27, 6, 8, 30, 0)
s = 154: (0, 17, 50, 13, 31, 31, 33, 17, 7, 12, 39, 0)
s = 155: (0, 11, 39, 15, 28, 41, 34, 26, 10, 6, 49, 0)
s = 156: (0, 25, 55, 10, 18, 29, 69, 36, 6, 10, 31, 0)
s = 157: (0, 21, 42, 12, 25, 33, 41, 25, 8, 11, 35, 0)
s = 158: (0, 17, 51, 22, 31, 54, 40, 18, 8, 11, 37, 0)
s = 159: (0, 22, 40, 9, 18, 32, 45, 20, 7, 7, 26, 0)
s = 160: (0, 12, 40, 19, 17, 38, 61, 35, 10, 15, 33, 0)
s = 161: (0, 9, 30, 16, 22, 38, 83, 16, 12, 9, 38, 0)
s = 162: (0, 11, 63, 16, 30, 31, 62, 31, 10, 14, 36, 0)
s = 163: (0, 10, 65, 18, 29, 42, 68, 25, 8, 11, 44, 0)
s = 164: (0, 25, 35, 15, 19, 24, 49, 19, 9, 13, 40, 0)
s = 165: (0, 16, 28, 14, 20, 43, 35, 20, 7, 15, 30, 0)
s = 166: (0, 15, 52, 16, 18, 36, 60, 15, 14, 10, 30, 0)
s = 167: (0, 15, 63, 14, 15, 29, 64, 40, 11, 11, 57, 0)
s = 168: (0, 18, 26, 21, 23, 28, 99, 18, 11, 6, 34, 0)
s = 169: (0, 18, 50, 16, 34, 55, 64, 36, 8, 10, 51, 0)
s = 170: (0, 13, 81, 12, 30, 35, 52, 18, 9, 8, 38, 0)
s = 171: (0, 20, 35, 16, 35, 40, 41, 21, 7, 7, 36, 0)
s = 172: (0, 15, 52, 13, 36, 23, 49, 22, 8, 12, 26, 0)
s = 173: (0, 15, 33, 15, 21, 29, 92, 22, 11, 7, 40, 0)
s = 174: (0, 16, 65, 10, 16, 30, 87, 23, 15, 16, 47, 0)
s = 175: (0, 16, 36, 19, 35, 54, 44, 34, 7, 6, 60, 0)
s = 176: (0, 25, 42, 16, 23, 53, 64, 28, 7, 12, 37, 0)
s = 177: (0, 13, 61, 16, 22, 25, 69, 27, 9, 15, 35, 0)
s = 178: (0, 20, 48, 12, 17, 47, 104, 38, 10, 11, 37, 0)
s = 179: (0, 18, 37, 19, 14, 35, 86, 26, 8, 11, 34, 0)
s = 180: (0, 10, 35, 8, 14, 24, 47, 22, 8, 6, 36, 0)
s = 181: (0, 15, 36, 14, 21, 37, 48, 32, 8, 9, 35, 0)
s = 182: (0, 25, 38, 10, 19, 51, 34, 17, 9, 6, 28, 0)
s = 183: (0, 22, 53, 21, 23, 47, 89, 37, 7, 13, 28, 0)
s = 184: (0, 18, 46, 14, 33, 25, 64, 29, 9, 9, 32, 0)
s = 185: (0, 10, 52, 18, 20, 25, 69, 26, 9, 6, 38, 0)
s = 186: (0, 14, 39, 16, 28, 41, 50, 26, 8, 7, 75, 0)
s = 187: (0, 21, 28, 11, 19, 51, 45, 35, 11, 10, 38, 0)
s = 188: (0, 13, 54, 24, 14, 36, 38, 26, 12, 13, 54, 0)
s = 189: (0, 13, 33, 10, 24, 42, 51, 17, 12, 11, 34, 0)
s = 190: (0, 23, 43, 11, 18, 48, 59, 35, 7, 7, 29, 0)
s = 191: (0, 11, 34, 18, 14, 26, 47, 28, 10, 10, 54, 0)
s = 192: (0, 17, 33, 14, 16, 36, 51, 17, 7, 6, 41, 0)
s = 193: (0, 16, 34, 17, 30, 22, 56, 23, 6, 13, 32, 0)
s = 194: (0, 30, 74, 16, 22, 45, 70, 21, 10, 13, 67, 0)
s = 195: (0, 12, 45, 25, 16, 23, 35, 34, 12, 7, 41, 0)
s = 196: (0, 22, 41, 10, 34, 49, 44, 23, 6, 10, 32, 0)
s = 197: (0, 19, 41, 10, 25, 33, 37, 24, 9, 9, 48, 0)
s = 198: (0, 23, 32, 12, 16, 43, 39, 32, 9, 8, 42, 0)
s = 199: (0, 17, 52, 12, 19, 29, 89, 21, 9, 8, 64, 0)
s = 200: (0, 17, 42, 12, 27, 41, 83, 28, 7, 10, 49, 0)
************************************************************************
ES/LS-VALUES:
jobnr.   ES(i)    LS(i)
------------------------------------------------------------------------
  0        0        0
  1        0       73
  2        0       62
  3        0       65
  4        7       70
  5        1       67
  6        4       71
  7        1       75
  8        4       79
  9       11       79
 10       10       74
 11       16       81
************************************************************************
BIG-M-VALUES:
M1 = 29, M2 = 200
************************************************************************
